Gurobi Optimizer version 9.1.2 build v9.1.2rc0 (linux64)
Thread count: 36 physical cores, 72 logical processors, using up to 32 threads
Optimize a model with 12 rows, 57 columns and 590 nonzeros
Model fingerprint: 0xf32eec78
Model has 47 quadratic constraints
Coefficient statistics:
  Matrix range     [2e-05, 3e+00]
  QMatrix range    [1e+00, 1e+00]
  QLMatrix range   [1e+00, 1e+00]
  Objective range  [8e-03, 7e-01]
  Bounds range     [1e+00, 1e+00]
  RHS range        [1e+00, 1e+00]
Presolve removed 9 rows and 0 columns

Continuous model is non-convex -- solving as a MIP.

Presolve removed 9 rows and 0 columns
Presolve time: 0.00s
Presolved: 189 rows, 57 columns, 443 nonzeros
Presolved model has 47 bilinear constraint(s)
Variable types: 57 continuous, 0 integer (0 binary)

Root relaxation: objective -1.743721e+00, 44 iterations, 0.00 seconds

    Nodes    |    Current Node    |     Objective Bounds      |     Work
 Expl Unexpl |  Obj  Depth IntInf | Incumbent    BestBd   Gap | It/Node Time

     0     0   -1.74372    0   38          -   -1.74372      -     -    0s
H    0     0                       0.6147548   -1.74372   384%     -    0s
     0     0   -1.64739    0    1    0.61475   -1.64739   368%     -    0s
H    0     0                      -1.6450460   -1.64739  0.14%     -    0s
     0     0     cutoff    0        -1.64505   -1.64505  0.00%     -    0s

Cutting planes:
  RLT: 25
  BQP: 3

Explored 1 nodes (76 simplex iterations) in 0.01 seconds
Thread count was 32 (of 72 available processors)

Solution count 2: -1.64505 0.614755 
No other solutions better than -1.64505

Optimal solution found (tolerance 1.00e-04)
Best objective -1.645045978473e+00, best bound -1.645045978473e+00, gap 0.0000%

User-callback calls 78, time in user-callback 0.00 sec
Gurobi Optimizer version 9.1.2 build v9.1.2rc0 (linux64)
Thread count: 36 physical cores, 72 logical processors, using up to 32 threads
Optimize a model with 24 rows, 125 columns and 2580 nonzeros
Model fingerprint: 0x1e454131
Model has 105 quadratic constraints
Coefficient statistics:
  Matrix range     [7e-06, 5e+01]
  QMatrix range    [1e+00, 1e+00]
  QLMatrix range   [1e+00, 1e+00]
  Objective range  [1e-02, 1e+00]
  Bounds range     [1e+00, 1e+00]
  RHS range        [1e+00, 1e+00]
Presolve removed 10 rows and 0 columns

Continuous model is non-convex -- solving as a MIP.

Presolve removed 10 rows and 0 columns
Presolve time: 0.00s
Presolved: 429 rows, 125 columns, 2142 nonzeros
Presolved model has 105 bilinear constraint(s)
Variable types: 125 continuous, 0 integer (0 binary)

Root relaxation: objective -7.265048e+00, 129 iterations, 0.00 seconds

    Nodes    |    Current Node    |     Objective Bounds      |     Work
 Expl Unexpl |  Obj  Depth IntInf | Incumbent    BestBd   Gap | It/Node Time

     0     0   -7.26505    0   75          -   -7.26505      -     -    0s
H    0     0                       0.1289806   -7.26505  5733%     -    0s
     0     0   -5.64080    0   83    0.12898   -5.64080  4473%     -    0s
H    0     0                      -1.6297813   -5.64080   246%     -    0s
     0     0   -5.51133    0   70   -1.62978   -5.51133   238%     -    0s
     0     0   -5.29384    0   95   -1.62978   -5.29384   225%     -    0s
H    0     0                      -2.2416351   -5.29384   136%     -    0s
     0     0   -5.28538    0   53   -2.24164   -5.28538   136%     -    0s
     0     0   -5.22319    0   95   -2.24164   -5.22319   133%     -    0s
     0     0   -5.21879    0   82   -2.24164   -5.21879   133%     -    0s
     0     0   -5.19036    0   95   -2.24164   -5.19036   132%     -    0s
     0     0   -5.18586    0   70   -2.24164   -5.18586   131%     -    0s
     0     0   -5.18351    0   70   -2.24164   -5.18351   131%     -    0s
     0     0   -5.18121    0   83   -2.24164   -5.18121   131%     -    0s
     0     0   -5.18036    0   70   -2.24164   -5.18036   131%     -    0s
     0     0   -5.17969    0   70   -2.24164   -5.17969   131%     -    0s
     0     0   -5.17901    0   70   -2.24164   -5.17901   131%     -    0s
H    0     0                      -3.1733923   -5.17901  63.2%     -    0s
H    0     0                      -3.3795022   -5.17901  53.2%     -    0s
H    0     0                      -4.0021117   -5.17901  29.4%     -    0s
H    0     0                      -4.0145000   -5.17901  29.0%     -    0s
     0     2   -5.17901    0   70   -4.01450   -5.17901  29.0%     -    0s
*  522   254              20      -4.0402712   -4.66364  15.4%  30.0    0s
*  631   288              21      -4.0420741   -4.66364  15.4%  27.7    0s
*  633   288              22      -4.0420836   -4.66364  15.4%  27.6    0s
*  836   374              29      -4.2575016   -4.66364  9.54%  24.8    0s
*  837   374              29      -4.2753818   -4.66364  9.08%  24.8    0s
* 1108   418              23      -4.3064300   -4.48774  4.21%  21.1    0s
* 1285   368              25      -4.3152376   -4.48774  4.00%  19.0    0s
* 1286   368              25      -4.3152378   -4.48774  4.00%  19.0    0s
* 1535   324              24      -4.3152440   -4.38065  1.52%  16.6    0s
* 1556   324              25      -4.3155905   -4.38065  1.51%  16.6    0s
* 1557   324              24      -4.3156066   -4.38065  1.51%  16.6    0s
* 1574   324              18      -4.3227497   -4.38065  1.34%  16.4    0s
* 1873    65              19      -4.3228456   -4.33251  0.22%  14.3    0s
* 1874    65              19      -4.3229741   -4.33251  0.22%  14.3    0s
* 1884    65              19      -4.3237785   -4.32769  0.09%  14.2    0s
* 1886    65              20      -4.3238766   -4.32769  0.09%  14.2    0s
* 2154    17              19      -4.3238788   -4.32656  0.06%  12.6    0s
* 2164    17              21      -4.3239294   -4.32627  0.05%  12.5    0s
* 2167    17              23      -4.3241788   -4.32627  0.05%  12.5    0s
* 2168    17              23      -4.3241793   -4.32627  0.05%  12.5    0s
* 2183    17              22      -4.3243436   -4.32601  0.04%  12.5    0s
* 2184    17              22      -4.3243789   -4.32601  0.04%  12.4    0s
* 2254     5              20      -4.3243998   -4.32496  0.01%  12.1    0s
* 2275     5              24      -4.3244025   -4.32466  0.01%  12.0    0s

Cutting planes:
  RLT: 56
  BQP: 8
  PSD: 77

Explored 2289 nodes (27845 simplex iterations) in 0.66 seconds
Thread count was 32 (of 72 available processors)

Solution count 10: -4.3244 -4.3244 -4.32438 ... -4.32297

Optimal solution found (tolerance 1.00e-04)
Best objective -4.324402460588e+00, best bound -4.324659264398e+00, gap 0.0059%

User-callback calls 4883, time in user-callback 0.00 sec



objective value: -4.324402460588431
objective bound: -4.324659264397928
x_opt: [1.0, 0.0, 1.0, 0.0, 0.20495156736665343, 0.0, 1.0, 1.0, 0.44604601047027725, 0.0, 0.0, 0.0, 0.8072919226858052, 0.0, 0.4556329857236648, 0.32262910721583204, 0.0, 0.0, 0.0, 0.0]
GUROBI solution time: 0.6641139984130859




